c 3 __LINUXTHREADS_OLD__
c 1 __UCLIBC_HAS_THREADS_NATIVE__
c 2 __UCLIBC_SUSV4_LEGACY__
c 4 __UCLIBC_HAS_STDIO_BUFSIZ_NONE__
c 6 __LINUXTHREADS_NEW__
c 5 __UCLIBC_HAS_THREADS__
p cnf 6 1
1 3 4 -5 -2 6 1
